Minimize
+ 3 x_0 + 5 x_1 + 2 x_2 + 4 x_3 + 6 x_4
+ 4 x_5 + 2 x_6 + 5 x_7 + 3 x_8 + 4 x_9
+ 5 x_10 + 3 x_11 + 4 x_12 + 2 x_13 + 5 x_14
+ 2 x_15 + 4 x_16 + 6 x_17 + 3 x_18 + 5 x_19
+ 1 x_20 + 1 x_21 + 1 x_22 + 1 x_23 + 1 x_24
+ 1 x_25 + 1 x_26 + 1 x_27 + 1 x_28 + 1 x_29
+ 1 x_30 + 1 x_31 + 1 x_32 + 1 x_33 + 1 x_34
+ 1 x_35 + 1 x_36 + 1 x_37 + 1 x_38 + 1 x_39
+ 142 x_40 + 165 x_41 + 138 x_42 + 174 x_43 + 159 x_44
+ 183 x_45 + 121 x_46 + 196 x_47 + 154 x_48 + 132 x_49
+ 167 x_50 + 145 x_51 + 189 x_52 + 123 x_53 + 171 x_54
+ 134 x_55 + 162 x_56 + 148 x_57 + 177 x_58 + 139 x_59
subject to
constr_0: + x_0 - x_20 = 18
constr_1: + x_1 + x_20 - x_21 = 24
constr_2: + x_2 + x_21 - x_22 = 21
constr_3: + x_3 + x_22 - x_23 = 27
constr_4: + x_4 + x_23 - x_24 = 19
constr_5: + x_5 - x_25 = 25
constr_6: + x_6 + x_25 - x_26 = 17
constr_7: + x_7 + x_26 - x_27 = 23
constr_8: + x_8 + x_27 - x_28 = 28
constr_9: + x_9 + x_28 - x_29 = 20
constr_10: + x_10 - x_30 = 22
constr_11: + x_11 + x_30 - x_31 = 26
constr_12: + x_12 + x_31 - x_32 = 19
constr_13: + x_13 + x_32 - x_33 = 24
constr_14: + x_14 + x_33 - x_34 = 21
constr_15: + x_15 - x_35 = 16
constr_16: + x_16 + x_35 - x_36 = 23
constr_17: + x_17 + x_36 - x_37 = 27
constr_18: + x_18 + x_37 - x_38 = 19
constr_19: + x_19 + x_38 - x_39 = 22
constr_20: + x_20 + x_25 + x_30 + x_35 <= 100
constr_21: + x_21 + x_26 + x_31 + x_36 <= 100
constr_22: + x_22 + x_27 + x_32 + x_37 <= 100
constr_23: + x_23 + x_28 + x_33 + x_38 <= 100
constr_24: + x_24 + x_29 + x_34 + x_39 <= 100
constr_25: + x_0 - 80 x_40 <= 0
constr_26: + x_1 - 80 x_41 <= 0
constr_27: + x_2 - 80 x_42 <= 0
constr_28: + x_3 - 80 x_43 <= 0
constr_29: + x_4 - 80 x_44 <= 0
constr_30: + x_5 - 80 x_45 <= 0
constr_31: + x_6 - 80 x_46 <= 0
constr_32: + x_7 - 80 x_47 <= 0
constr_33: + x_8 - 80 x_48 <= 0
constr_34: + x_9 - 80 x_49 <= 0
constr_35: + x_10 - 80 x_50 <= 0
constr_36: + x_11 - 80 x_51 <= 0
constr_37: + x_12 - 80 x_52 <= 0
constr_38: + x_13 - 80 x_53 <= 0
constr_39: + x_14 - 80 x_54 <= 0
constr_40: + x_15 - 80 x_55 <= 0
constr_41: + x_16 - 80 x_56 <= 0
constr_42: + x_17 - 80 x_57 <= 0
constr_43: + x_18 - 80 x_58 <= 0
constr_44: + x_19 - 80 x_59 <= 0
constr_45: + 1 x_0 + 0 x_40 + 1 x_5 + 0 x_45 + 1 x_10 + 0 x_50 + 1 x_15 + 0 x_55 <= 90
constr_46: + 1 x_1 + 0 x_41 + 1 x_6 + 0 x_46 + 1 x_11 + 0 x_51 + 1 x_16 + 0 x_56 <= 90
constr_47: + 1 x_2 + 0 x_42 + 1 x_7 + 0 x_47 + 1 x_12 + 0 x_52 + 1 x_17 + 0 x_57 <= 90
constr_48: + 1 x_3 + 0 x_43 + 1 x_8 + 0 x_48 + 1 x_13 + 0 x_53 + 1 x_18 + 0 x_58 <= 90
constr_49: + 1 x_4 + 0 x_44 + 1 x_9 + 0 x_49 + 1 x_14 + 0 x_54 + 1 x_19 + 0 x_59 <= 90
Binaries
x_40
x_41
x_42
x_43
x_44
x_45
x_46
x_47
x_48
x_49
x_50
x_51
x_52
x_53
x_54
x_55
x_56
x_57
x_58
x_59
End
